proyfinal/src/viki/013/experimentInOfficeAgust.take6.output/09d6e6d2-2650-49fe-8008-6a7bd55be27e.als.dat
{'cnf.clauses': '118081',
 'cnf.totvars': '69608',
 'conflict literals': '4',
 'conflicts': '4',
 'decisions': '476',
 'memused.mb': '16.61',
 'outcome': 'UNSAT',
 'propagations': '20095',
 'restarts': '1',
 'solver.msecs': 32,
 'task.msecs': 81}
