proyfinal/src/viki/013/experimentInOfficeAgust.take6.output/09d6e6d2-2650-49fe-8008-6a7bd55be27e.als.out
Reading from standard input... Use '--help' for help.
============================[ Problem Statistics ]=============================
|                                                                             |
|  Number of variables:         69608                                         |
|  Number of clauses:          118081                                         |
|  Parse time:                   0.02 s                                       |
|                                                                             |
============================[ Search Statistics ]==============================
| Conflicts |          ORIGINAL         |          LEARNT          | Progress |
|           |    Vars  Clauses Literals |    Limit  Clauses Lit/Cl |          |
===============================================================================
===============================================================================
restarts              : 1
conflicts             : 4              (121 /sec)
decisions             : 476            (0.00 % random) (14441 /sec)
propagations          : 20095          (609660 /sec)
conflict literals     : 4              (0.00 % deleted)
Memory used           : 16.61 MB
CPU time              : 0.032961 s

UNSATISFIABLE
